[[51, 16, 24, 49, 63, 33, 23, 56, 41, 43, 42, 64, 22, 73, 62, 61, 28, 74, 2, 30, 48, 29, 5, 47, 21, 36, 69, 71, 60, 70, 20, 37, 15, 57], [13, 54, 52, 27, 45, 4, 68, 6, 75, 76, 26, 67, 34, 46, 8, 7, 35, 19, 53, 14, 59, 11, 66, 65, 38, 10, 58, 72, 31, 39, 9, 25, 55, 18, 50, 32, 44, 3, 40, 12, 17]]